c WARNING: for repeatability, setting FPU to use double precision
d VARIABLES            73566        
d CONSTRAINTS          292987       
c ============================[ Problem Statistics ]=============================
c |                                                                             |
c |  Number of variables:         73566                                         |
c |  Number of clauses:          292987                                         |
c |  Parse time:                   0.05 s                                       |
c |                                                                             |
c ============================[ Search Statistics ]==============================
c | Conflicts |          ORIGINAL         |          LEARNT          | Progress |
c |           |    Vars  Clauses Literals |    Limit  Clauses Lit/Cl |          |
c ===============================================================================
c |       100 |   53486   240965   589033 |    88353      100     95 | 27.295 % |
c |       250 |   53486   240965   589033 |    97189      250     66 | 27.295 % |
c |       475 |   53486   240965   589033 |   106908      475     61 | 27.295 % |
c |       812 |   53486   240965   589033 |   117598      812     55 | 27.295 % |
c |      1318 |   53486   240965   589033 |   129358     1318     64 | 27.295 % |
c |      2077 |   53486   240965   589033 |   142294     2077     66 | 27.295 % |
c |      3216 |   53486   240965   589033 |   156524     3216     77 | 27.295 % |
c |      4924 |   53486   240965   589033 |   172176     4924     87 | 27.295 % |
c |      7486 |   53486   240965   589033 |   189394     7486     82 | 27.295 % |
c |     11330 |   53486   240965   589033 |   208333    11330     83 | 27.295 % |
c |     17096 |   53486   240965   589033 |   229167    17096     82 | 27.295 % |
c |     25745 |   53486   240965   589033 |   252083    25745     78 | 27.295 % |
c |     38719 |   53486   240965   589033 |   277292    38719     75 | 27.295 % |
c |     58180 |   53486   240965   589033 |   305021    58180     72 | 27.295 % |
c ===============================================================================
c restarts              : 253
c conflicts             : 82684          (2762 /sec)
c decisions             : 192006         (0.00 % random) (6414 /sec)
c propagations          : 142682959      (4766606 /sec)
c conflict literals     : 5625014        (49.36 % deleted)
d RESTARTS             253
d FAILURES             82684        
d NODES                192006       
d BACKTRACKS           192006       
d PROPAGATIONS         142682959    
d NOGOODSIZE           68.03 
d MEMORY               66.00 
d TIME                 29.9339 

s UNSATISFIABLE
